WARNING: for repeatability, setting FPU to use double precision
============================[ Problem Statistics ]=============================
|                                                                             |
|  Number of variables:        201317                                         |
|  Number of clauses:          447730                                         |
|  Parse time:                   0.23 s                                       |
|                                                                             |
============================[ Search Statistics ]==============================
| Conflicts |          ORIGINAL         |          LEARNT          | Progress |
|           |    Vars  Clauses Literals |    Limit  Clauses Lit/Cl |          |
===============================================================================
|       100 |  107812   425534   959280 |   156029      100     63 | 46.447 % |
|       250 |  107812   425534   959280 |   171632      250     54 | 46.447 % |
|       475 |  107812   425534   959280 |   188795      475     57 | 46.447 % |
|       812 |  107812   425534   959280 |   207674      812     56 | 46.447 % |
|      1318 |  107812   425534   959280 |   228442     1318     55 | 46.447 % |
|      2077 |  107812   425534   959280 |   251286     2077     54 | 46.447 % |
|      3216 |  107812   425534   959280 |   276415     3216     80 | 46.447 % |
|      4924 |  107812   425534   959280 |   304056     4924     69 | 46.447 % |
|      7486 |  107812   425534   959280 |   334462     7486     66 | 46.447 % |
|     11330 |  107808   425517   959242 |   367908    11327     64 | 46.449 % |
|     17096 |  107808   425517   959242 |   404699    17093     62 | 46.449 % |
|     25745 |  107808   425517   959242 |   445169    25742     62 | 46.449 % |
|     38719 |  107804   425500   959204 |   489686    38709     66 | 46.451 % |
|     58180 |  107800   425483   959166 |   538654    58134     71 | 46.453 % |
|     87372 |  107754   425277   958708 |   592520    85452     72 | 46.475 % |
|    131161 |  107716   425107   958330 |   651772   126547     88 | 46.494 % |
===============================================================================
restarts              : 445
conflicts             : 166124         (1031 /sec)
decisions             : 713075         (0.00 % random) (4427 /sec)
propagations          : 488319526      (3031571 /sec)
conflict literals     : 15690524       (19.88 % deleted)
Memory used           : 133.00 MB
CPU time              : 161.078 s

SATISFIABLE
